SCIP Status        : solving was interrupted [time limit reached]
Total Time         :    3600.03
  solving          :    3600.02
  presolving       :       0.14 (included in solving)
  reading          :       0.01
  copying          :       0.03 (8 #copies) (minimal 0.00, maximal 0.01, average 0.00)
Original Problem   :
  Problem name     : benchmark/block2_45_10_9_12.design
  Variables        : 1108 (45 binary, 0 integer, 0 implicit integer, 1063 continuous)
  Constraints      : 1524 initial, 1524 maximal
  Objective        : minimize, 1 non-zeros (abs.min = 1, abs.max = 1)
Presolved Problem  :
  Problem name     : t_benchmark/block2_45_10_9_12.design
  Variables        : 1605 (45 binary, 0 integer, 0 implicit integer, 1560 continuous)
  Constraints      : 1524 initial, 1537 maximal
  Objective        : minimize, 1 non-zeros (abs.min = 1, abs.max = 1)
  Nonzeros         : 5168 constraint, 0 clique table
Presolvers         :   ExecTime  SetupTime  Calls  FixedVars   AggrVars   ChgTypes  ChgBounds   AddHoles    DelCons    AddCons   ChgSides   ChgCoefs
  boundshift       :       0.00       0.00      0          0          0          0          0          0          0          0          0          0
  convertinttobin  :       0.00       0.00      0          0          0          0          0          0          0          0          0          0
  domcol           :       0.00       0.00      1          0          0          0          0          0          0          0          0          0
  dualagg          :       0.00       0.00      0          0          0          0          0          0          0          0          0          0
  dualcomp         :       0.00       0.00      1          0          0          0          0          0          0          0          0          0
  dualinfer        :       0.00       0.00      0          0          0          0          0          0          0          0          0          0
  dualsparsify     :       0.00       0.00      1          0          0          0          0          0          0          0          0          0
  gateextraction   :       0.00       0.00      0          0          0          0          0          0          0          0          0          0
  implics          :       0.00       0.00      1          0          0          0          0          0          0          0          0          0
  inttobinary      :       0.00       0.00      0          0          0          0          0          0          0          0          0          0
  qpkktref         :       0.00       0.00      0          0          0          0          0          0          0          0          0          0
  redvub           :       0.00       0.00      0          0          0          0          0          0          0          0          0          0
  sparsify         :       0.00       0.00      1          0          0          0          0          0          0          0          0          0
  stuffing         :       0.00       0.00      0          0          0          0          0          0          0          0          0          0
  trivial          :       0.00       0.00      2         36          0          0          0          0          0          0          0          0
  tworowbnd        :       0.00       0.00      0          0          0          0          0          0          0          0          0          0
  dualfix          :       0.00       0.00      2         36          0          0          0          0          0          0          0          0
  genvbounds       :       0.00       0.00      0          0          0          0          0          0          0          0          0          0
  probing          :       0.01       0.00      1          0          0          0          0          0          0          0          0          0
  pseudoobj        :       0.00       0.00      0          0          0          0          0          0          0          0          0          0
  symmetry         :       0.00       0.00      1          0          0          0          0          0          0          0          0          0
  vbounds          :       0.00       0.00      0          0          0          0          0          0          0          0          0          0
  linear           :       0.00       0.00      3          0          0          0          0          0          0          0          0          0
  nonlinear        :       0.11       0.02      4          0          0          0         81          0          0          0          0          0
  benders          :       0.00       0.00      0          0          0          0          0          0          0          0          0          0
  components       :       0.00       0.00      1          0          0          0          0          0          0          0          0          0
  root node        :          -          -      -          0          -          -       3061          -          -          -          -          -
Constraints        :     Number  MaxNumber  #Separate #Propagate    #EnfoLP    #EnfoRelax  #EnfoPS    #Check   #ResProp    Cutoffs    DomReds       Cuts    Applied      Conss   Children
  benderslp        :          0          0          0          0      29409          0          0      24255          0          0          0          0          0          0          0
  integral         :          0          0          0          0      29409          0          0      24255          0          0       4335          0          0          0      58416
  linear           :       1037+      1050         64     840192          0          0          0      24249         13        102     104246          2          0          0          0
  nonlinear        :        487        487     235415     840090          0          0          0      20107          0         65    2102126    3774016    3744190          0          0
  benders          :          0          0          0          0          0          0          0         10          0          0          0          0          0          0          0
  countsols        :          0          0          0          0          0          0          0         10          0          0          0          0          0          0          0
  components       :          0          0          0          0          0          0          0          0          0          0          0          0          0          0          0
Constraint Timings :  TotalTime  SetupTime   Separate  Propagate     EnfoLP     EnfoPS     EnfoRelax   Check    ResProp    SB-Prop
  benderslp        :       0.01       0.00       0.00       0.00       0.01       0.00       0.00       0.00       0.00       0.00
  integral         :       9.53       0.00       0.00       0.00       9.48       0.00       0.00       0.05       0.00       0.00
  linear           :      17.96       0.00       0.00      17.23       0.00       0.00       0.00       0.72       0.00       0.01
  nonlinear        :     396.47       0.02     285.06     103.80       0.00       0.00       0.00       7.43       0.00       0.16
  benders          :       0.00       0.00       0.00       0.00       0.00       0.00       0.00       0.00       0.00       0.00
  countsols        :       0.00       0.00       0.00       0.00       0.00       0.00       0.00       0.00       0.00       0.00
  components       :       0.10       0.00       0.00       0.10       0.00       0.00       0.00       0.00       0.00       0.00
Propagators        : #Propagate   #ResProp    Cutoffs    DomReds
  dualfix          :          4          0          0          0
  genvbounds       :          0          0          0          0
  nlobbt           :          0          0          0          0
  obbt             :          0          0          0          0
  probing          :          0          0          0          0
  pseudoobj        :      97617          0          0         18
  redcost          :     294243          0          0          2
  rootredcost      :          8          0          0       2555
  symmetry         :          0          0          0          0
  vbounds          :     167244          0          0          0
Propagator Timings :  TotalTime  SetupTime   Presolve  Propagate    ResProp    SB-Prop
  dualfix          :       0.01       0.00       0.00       0.01       0.00       0.00
  genvbounds       :       0.48       0.00       0.00       0.48       0.00       0.00
  nlobbt           :       0.00       0.00       0.00       0.00       0.00       0.00
  obbt             :       0.00       0.00       0.00       0.00       0.00       0.00
  probing          :       0.01       0.00       0.01       0.00       0.00       0.00
  pseudoobj        :       0.55       0.00       0.00       0.55       0.00       0.00
  redcost          :       3.59       0.00       0.00       3.59       0.00       0.00
  rootredcost      :       0.42       0.00       0.00       0.42       0.00       0.00
  symmetry         :       0.25       0.00       0.00       0.24       0.00       0.01
  vbounds          :       0.44       0.00       0.00       0.44       0.00       0.00
Conflict Analysis  :       Time      Calls    Success    DomReds  Conflicts   Literals    Reconvs ReconvLits   Dualrays   Nonzeros   LP Iters   (pool size: [--,--])
  propagation      :       0.00         33          5          -          5       40.0          0        0.0          -          -          -
  infeasible LP    :       0.00          3          2          -          0        0.0          0        0.0        486      164.9          0
  bound exceed. LP :       2.58       1297        484          -          0        0.0          0        0.0          0        0.0      16194
  strong branching :       0.00          0          0          -          0        0.0          0        0.0          -          -          0
  pseudo solution  :       0.00          0          0          -          0        0.0          0        0.0          -          -          -
  applied globally :       0.00          -          -          0          0        0.0          -          -        486          -          -
  applied locally  :          -          -          -          0          0        0.0          -          -          0          -          -
Separators         :   ExecTime  SetupTime      Calls  RootCalls    Cutoffs    DomReds  FoundCuts ViaPoolAdd  DirectAdd    Applied ViaPoolApp  DirectApp      Conss
  cut pool         :       0.00          -       2394         66          -          -         42         58          -          -          -          -          -    (maximal pool size:          5)
  aggregation      :       7.59       0.00       7220         64          0          0          0          0          0          0          0          0          0
  > cmir           :          -          -          -          -          -          -          -          0          0          0          0          0          -
  > flowcover      :          -          -          -          -          -          -          -          0          0          0          0          0          -
  > knapsackcover  :          -          -          -          -          -          -          -          0          0          0          0          0          -
  cgmip            :       0.00       0.00          0          0          0          0          0          0          0          0          0          0          0
  clique           :       0.00       0.00          1          1          0          0          0          0          0          0          0          0          0
  closecuts        :       0.00       0.00          0          0          0          0          0          0          0          0          0          0          0
  convexproj       :       0.00       0.00          0          0          0          0          0          0          0          0          0          0          0
  disjunctive      :       0.00       0.00          0          0          0          0          0          0          0          0          0          0          0
  eccuts           :       0.00       0.00          0          0          0          0          0          0          0          0          0          0          0
  gauge            :       0.00       0.00          0          0          0          0          0          0          0          0          0          0          0
  gomory           :       8.38       0.00       4094         10          0          0         49         58          7         30         28          2          0
  > gomorymi       :          -          -          -          -          -          -          -         58          7         30         28          2          -
  > strongcg       :          -          -          -          -          -          -          -          0          0          0          0          0          -
  impliedbounds    :       0.36       0.00       7220         64          0          0          0          0          0          0          0          0          0
  interminor       :       0.00       0.00          0          0          0          0          0          0          0          0          0          0          0
  intobj           :       0.00       0.00          0          0          0          0          0          0          0          0          0          0          0
  mcf              :       0.00       0.00          3          3          0          0          0          0          0          0          0          0          0
  minor            :       0.02       0.00          0          0          0          0          0          0          0          0          0          0          0
  mixing           :       0.19       0.00       7220         64          0          0          0          0          0          0          0          0          0
  oddcycle         :       0.00       0.00          0          0          0          0          0          0          0          0          0          0          0
  rapidlearning    :       0.00       0.00          0          0          0          0          0          0          0          0          0          0          0
  rlt              :       0.01       0.00         10         10          0          0          0          0          0          0          0          0          0
  zerohalf         :       0.89       0.00       4104         20          0          0          0          0          0          0          0          0          0
Cutselectors       :   ExecTime  SetupTime      Calls  RootCalls   Selected     Forced   Filtered  RootSelec   RootForc   RootFilt 
  hybrid           :       2.22       0.00     235415         64    3744220          0      29863       3131          0        165
Pricers            :   ExecTime  SetupTime      Calls       Vars
  problem variables:       0.00          -          0          0
Branching Rules    :   ExecTime  SetupTime   BranchLP  BranchExt   BranchPS    Cutoffs    DomReds       Cuts      Conss   Children
  allfullstrong    :       0.00       0.00          0          0          0          0          0          0          0          0
  cloud            :       0.00       0.00          0          0          0          0          0          0          0          0
  distribution     :       0.00       0.00          0          0          0          0          0          0          0          0
  fullstrong       :       0.00       0.00          0          0          0          0          0          0          0          0
  inference        :       0.00       0.00          0          0          0          0          0          0          0          0
  leastinf         :       0.00       0.00          0          0          0          0          0          0          0          0
  lookahead        :       0.00       0.00          0          0          0          0          0          0          0          0
  mostinf          :       0.00       0.00          0          0          0          0          0          0          0          0
  multaggr         :       0.00       0.00          0          0          0          0          0          0          0          0
  nodereopt        :       0.00       0.00          0          0          0          0          0          0          0          0
  pscost           :       0.00       0.00          0          0          0          0          0          0          0          0
  random           :       0.00       0.00          0          0          0          0          0          0          0          0
  relpscost        :       9.44       0.00      29409          0          0          0       4335          0          0      58416
  vanillafullstrong:       0.00       0.00          0          0          0          0          0          0          0          0
Primal Heuristics  :   ExecTime  SetupTime      Calls      Found       Best
  LP solutions     :       0.00          -          -          0          0
  relax solutions  :       0.00          -          -          0          0
  pseudo solutions :       0.00          -          -          0          0
  strong branching :       0.01          -          -          0          0
  actconsdiving    :       0.00       0.00          0          0          0
  adaptivediving   :       2.46       0.00         65          0          0
  alns             :       3.90       0.00          8          0          0
  bound            :       0.00       0.00          0          0          0
  clique           :       0.00       0.00          0          0          0
  coefdiving       :       0.00       0.00          0          0          0
  completesol      :       0.00       0.00          0          0          0
  conflictdiving   :      37.77       0.00        962          0          0
  crossover        :       0.00       0.00          0          0          0
  dins             :       0.00       0.00          0          0          0
  distributiondivin:     665.62       0.00       1369          0          0
  dps              :       0.00       0.00          0          0          0
  dualval          :       0.00       0.00          0          0          0
  farkasdiving     :       0.00       0.00          0          0          0
  feaspump         :      32.97       0.00        211          0          0
  fixandinfer      :       0.00       0.00          0          0          0
  fracdiving       :      65.67       0.00       1369          0          0
  gins             :       0.01       0.00          0          0          0
  guideddiving     :      80.10       0.00       1562          0          0
  indicator        :       0.17       0.00          0          0          0
  indicatordiving  :       0.00       0.00          0          0          0
  intdiving        :       0.00       0.00          0          0          0
  intshifting      :       1.23       0.00         44          0          0
  linesearchdiving :      63.79       0.00       1587          0          0
  localbranching   :       0.00       0.00          0          0          0
  locks            :       0.03       0.00          1          0          0
  lpface           :       0.01       0.00          0          0          0
  mpec             :       4.93       0.00          1          0          0
  multistart       :       0.00       0.00          0          0          0
  mutation         :       0.00       0.00          0          0          0
  nlpdiving        :       2.24       0.00          1          0          0
  objpscostdiving  :       3.62       0.00          8          0          0
  octane           :       0.00       0.00          0          0          0
  ofins            :       0.01       0.00          0          0          0
  oneopt           :       0.05       0.00          9          0          0
  padm             :       0.00       0.00          0          0          0
  proximity        :       0.00       0.00          0          0          0
  pscostdiving     :      58.33       0.00       1024          0          0
  randrounding     :       1.95       0.00       5365          0          0
  rens             :       0.00       0.00          0          0          0
  reoptsols        :       0.00       0.00          0          0          0
  repair           :       0.00       0.00          0          0          0
  rins             :       0.00       0.00          0          0          0
  rootsoldiving    :       1.63       0.00         13          0          0
  rounding         :       0.85       0.00       7122          0          0
  shiftandpropagate:       0.02       0.00          1          0          0
  shifting         :       1.14       0.00       1563          0          0
  simplerounding   :       0.17       0.00          0          0          0
  subnlp           :       9.83       0.00         45          9          9
  trivial          :       0.01       0.00          2          0          0
  trivialnegation  :       0.00       0.00          0          0          0
  trustregion      :       0.00       0.00          0          0          0
  trysol           :       0.16       0.00          0          0          0
  twoopt           :       0.00       0.00          0          0          0
  undercover       :       0.20       0.00          1          0          0
  vbounds          :       0.00       0.00          0          0          0
  veclendiving     :      44.61       0.00       1546          0          0
  zeroobj          :       0.00       0.00          0          0          0
  zirounding       :       0.03       0.00       1000          0          0
  other solutions  :          -          -          -          0          -
Diving (single)    :      Calls      Nodes   LP Iters Backtracks  Conflicts   MinDepth   MaxDepth   AvgDepth  RoundSols  NLeafSols  MinSolDpt  MaxSolDpt  AvgSolDpt
  actconsdiving    :          0          -          -          -          -          -          -          -          -          -          -          -          -
  coefdiving       :          0          -          -          -          -          -          -          -          -          -          -          -          -
  conflictdiving   :        962      19174     501551        240        104         15         45       34.6          0          -          -          -          -
  distributiondivin:       1369      22178     714479        457        269         17         45       31.8          0          -          -          -          -
  farkasdiving     :          0          -          -          -          -          -          -          -          -          -          -          -          -
  fracdiving       :       1369      37791     750644          9          4         36         45       43.7          0          -          -          -          -
  guideddiving     :       1562      37970     864316         76         25         31         45       42.2          0          -          -          -          -
  indicatordiving  :          0          -          -          -          -          -          -          -          -          -          -          -          -
  linesearchdiving :       1587      32331     716615         50         14         28         45       37.9          0          -          -          -          -
  pscostdiving     :       1024      30403     686900          5          2         33         45       44.4          0          -          -          -          -
  veclendiving     :       1546       9874     505901        338         72         14         39       22.2          0          -          -          -          -
Diving (adaptive)  :      Calls      Nodes   LP Iters Backtracks  Conflicts   MinDepth   MaxDepth   AvgDepth  RoundSols  NLeafSols  MinSolDpt  MaxSolDpt  AvgSolDpt
  actconsdiving    :         22        143       9465          6          0         18         27       21.0          0          -          -          -          -
  coefdiving       :         18        113       6310          4          1         16         25       21.7          0          -          -          -          -
  conflictdiving   :          0          -          -          -          -          -          -          -          -          -          -          -          -
  distributiondivin:          0          -          -          -          -          -          -          -          -          -          -          -          -
  farkasdiving     :          0          -          -          -          -          -          -          -          -          -          -          -          -
  fracdiving       :          2         62       1041          0          0         44         44       44.0          0          -          -          -          -
  guideddiving     :          8        222       4694          0          0         40         45       42.4          0          -          -          -          -
  indicatordiving  :          0          -          -          -          -          -          -          -          -          -          -          -          -
  linesearchdiving :          4         79       1444          0          0         33         37       35.0          0          -          -          -          -
  pscostdiving     :          5        144       3278          0          0         44         45       44.8          0          -          -          -          -
  veclendiving     :          6         53       1785          0          0         14         27       20.3          0          -          -          -          -
Neighborhoods      :      Calls  SetupTime  SolveTime SolveNodes       Sols       Best       Exp3  EpsGreedy        UCB TgtFixRate  Opt  Inf Node Stal  Sol  Usr Othr Actv
  rens             :          1       0.01       0.43          1          0          0    0.00000   -1.00000    0.55840      0.700    0    1    0    0    0    0    0    1
  rins             :          1       0.01       0.52         19          0          0    0.00000   -1.00000    0.53818      0.700    0    1    0    0    0    0    0    1
  mutation         :          1       0.01       0.41          7          0          0    0.00000   -1.00000    0.55307      0.700    0    1    0    0    0    0    0    1
  localbranching   :          1       0.00       1.04          9          0          0    0.00000   -1.00000    0.54929      0.700    0    1    0    0    0    0    0    1
  crossover        :          1       0.01       0.54         19          0          0    0.00000   -1.00000    0.53818      0.700    0    1    0    0    0    0    0    1
  proximity        :          1       0.01       0.37          9          0          0    0.00000   -1.00000    0.54929      0.700    0    1    0    0    0    0    0    1
  zeroobjective    :          1       0.00       0.00          0          0          0    0.00000   -1.00000    0.05929      0.900    0    0    0    0    0    0    1    1
  dins             :          1       0.01       0.46          9          0          0    0.00000   -1.00000    0.54929      0.700    0    1    0    0    0    0    0    1
  trustregion      :          0       0.00       0.00          0          0          0    0.00000   -1.00000    1.00000      0.900    0    0    0    0    0    0    0    0
Expressions        :   #IntEval  IntEvalTi   #RevProp  RevPropTi    DomReds    Cutoffs  #Estimate  EstimTime  Branching  #Simplify SimplifyTi Simplified
  pow              :   18348943       4.54    5979570       1.91   10007268          0        831       0.00          0       1071       0.00          0
  prod             :   14987542       4.87     194467       0.54        339          0          0       0.00          0        812       0.00        405
  sum              :   16804671       4.68   10410570       3.66     719123         42         82       0.00          0       1055       0.00         82
  var              :   41859162       9.88          0       0.00          0          0          0       0.00          0       2854       0.00          0
  varidx           :          0       0.00          0       0.00          0          0          0       0.00          0          0       0.00          0
Nonlinear Conshdlr :   WeakSepa  TightenLP DespTghtLP DespBranch DespCutoff    ForceLP  CanonTime
  enforce          :          0          0          0          0          0          0
  presolve         :                                                                         0.11
Nlhdlrs            :    Detects  DetectAll DetectTime   #IntEval  IntEvalTi   #RevProp  RevPropTi    DomReds    Cutoffs   #Enforce   EnfoTime       Cuts  Branching
  soc              :        405        405       0.01          0       0.00          0       0.00          0          0   62180202     112.63    3537851          0
  convex           :          1          1       0.00          0       0.00          0       0.00          0          0     235416       1.26     235415          0
  concave          :          0          0       0.00          0       0.00          0       0.00          0          0          0       0.00          0          0
  quotient         :          0          0       0.02          0       0.00          0       0.00          0          0          0       0.00          0          0
  quadratic        :          0          0       0.00          0       0.00          0       0.00          0          0          0       0.00          0          0
  default          :       2415      12075       0.00   50139134      33.27   16587688      32.55   10726730         42        913       0.00        750          0
  bilinear         :          0          0       0.01          0       0.00          0       0.00          0          0          0       0.00          0          0
  perspective      :          0          0       0.01          0       0.00          0       0.00          0          0          0       0.00          0          0
LP                 :       Time      Calls Iterations  Iter/call   Iter/sec  Time-0-It Calls-0-It    ItLimit
  primal LP        :     475.34      31619          0       0.00       0.00     475.24      31619
  dual LP          :    1509.47     264857   17162786      64.85   11370.07       0.06        217
  lex dual LP      :       0.00          0          0       0.00          -
  barrier LP       :       0.00          0          0       0.00          -       0.00          0
  resolve instable :       0.00          0          0       0.00          -
  diving/probing LP:     275.37      48768    5005829     102.65   18178.56
  strong branching :       4.64        527      57019     108.20   12288.58          -          -         59
    (at root node) :          -         45        709      15.76          -
  conflict analysis:       1.39       1819      16194       8.90   11650.36
NLP relaxation     :
  solve time       :       2.22 (11 calls)
  convexity        :  nonconvex (65 linear rows, 82 convex ineq., 405 nonconvex ineq., 0 nonlinear eq. or two-sided ineq.)
NLP Solvers        :  #Problems  ProblemTi    #Solves  SolveTime      #Iter  Time/Iter      #Okay #TimeLimit #IterLimit #LObjLimit #Interrupt  #NumError #EvalError  #OutOfMem #LicenseEr #OtherTerm   #GlobOpt    #LocOpt  #Feasible #LocInfeas #GlobInfea #Unbounded   #Unknown
  ipopt            :         47      13.66         58      15.24       2779       0.01         47          0         11          0          0          0          0          0          0          0          0         17          3         29          0          0          9
B&B Tree           :
  number of runs   :          1
  nodes            :      29208 (29208 internal, 0 leaves)
  feasible leaves  :          0
  infeas. leaves   :          0
  objective leaves :          0
  nodes (total)    :      29208 (29208 internal, 0 leaves)
  nodes left       :      29209
  max depth        :         24
  max depth (total):         24
  backtracks       :      10807 (37.0%)
  early backtracks :          0 (0.0%)
  nodes exc. ref.  :          0 (0.0%)
  delayed cutoffs  :          0
  repropagations   :         11 (0 domain reductions, 0 cutoffs)
  avg switch length:       8.86
  switching time   :     460.93
Estim. Tree Size   :         -1
Estimation Tree    : 58417 nodes (29208 visited, 29208 internal, 0 leaves, 29209 open), weight: 0.0000 completed 0.0701
Estimations        :      estim      value      trend resolution     smooth
  wbe              :         -1          -          -          -          -
  tree-profile     :         -1          -          -          -          -
  gap              :         -1    0.86410                     1           
  tree-weight      :         -1    0.00000                     1           
  leaf-frequency   :         -1   -0.00002                     1           
  ssg              :         -1    0.88937                     1           
  open-nodes       :         -1 29209.00000                     1           
Root Node          :
  First LP value   : -2.46020027592781e+00
  First LP Iters   :       1489 (49633.33 Iter/sec)
  First LP Time    :       0.03
  Final Dual Bound : -2.06406142500600e+00
  Final Root Iters :       8089
  Root LP Estimate : -1.86141814933451e+00
Solution           :
  Solutions found  :          9 (9 improvements)
  First Solution   : -1.39495346303150e+00   (in run 1, after 1 nodes, 0.69 seconds, depth 0, found by <locks>)
  Gap First Sol.   :      76.36 %
  Gap Last Sol.    :      17.06 %
  Primal Bound     : -1.69745757143970e+00   (in run 1, after 6084 nodes, 640.72 seconds, depth 12, found by <fracdiving>)
  Dual Bound       : -1.96441616592429e+00
  Gap              :      15.73 %
Integrals          :      Total       Avg%
  primal-dual      :   53143.40      14.76
  primal-ref       :          -          - (not evaluated)
  dual-ref         :          -          - (not evaluated)
